 C  H                                   
   1.00000000000000     
     8.3155757467537992    0.0000000000000000    0.0000000000000000
     5.5437171645025325    9.6019997917100568    0.0000000000000000
     0.0000000000000000    0.0000000000000000   26.7896391656699997
   C    H 
     4    10
Direct
  0.4579590180386859  0.3838231701673109  0.3482536641238383
  0.3537435786795982  0.6345126153054181  0.3696108013537085
  0.3988683438817873  0.4919100294167791  0.3904905152065510
  0.5471176984925279  0.4458040088373778  0.4317154079036953
  0.3379446412746461  0.3953061947863290  0.3274206101006527
  0.5492507171705867  0.3955530183701015  0.3216157540128819
  0.5338877066280361  0.2773078585461803  0.3626961878774182
  0.2457850934363819  0.6710904123913153  0.3408825308741967
  0.2717273856134668  0.5033211940050748  0.4075306849967006
  0.4782711683553629  0.6273516070267675  0.3527371138357651
  0.6121182258811828  0.3341574744429963  0.4392556363760107
  0.3067872199552824  0.7135388615520668  0.3989975353493236
  0.6573481377498283  0.4675692665475921  0.4210769667422625
  0.4866511181632731  0.5010799942064068  0.4666617539224092
 
  0.00000000E+00  0.00000000E+00  0.00000000E+00
  0.00000000E+00  0.00000000E+00  0.00000000E+00
  0.00000000E+00  0.00000000E+00  0.00000000E+00
  0.00000000E+00  0.00000000E+00  0.00000000E+00
  0.00000000E+00  0.00000000E+00  0.00000000E+00
  0.00000000E+00  0.00000000E+00  0.00000000E+00
  0.00000000E+00  0.00000000E+00  0.00000000E+00
  0.00000000E+00  0.00000000E+00  0.00000000E+00
  0.00000000E+00  0.00000000E+00  0.00000000E+00
  0.00000000E+00  0.00000000E+00  0.00000000E+00
  0.00000000E+00  0.00000000E+00  0.00000000E+00
  0.00000000E+00  0.00000000E+00  0.00000000E+00
  0.00000000E+00  0.00000000E+00  0.00000000E+00
  0.00000000E+00  0.00000000E+00  0.00000000E+00
